\ Model Generator_Installation_copy
\ LP format - for model browsing. Use MPS format to capture full model detail.
Maximize
 
Subject To
 Energy_Capacity_at_Location_215: 3.7219139899999998e+06 A_egs[1,1,215]
   + 3.7219139899999998e+06 A_egs[1,2,215]
   + 3.7219139899999998e+06 A_egs[1,3,215]
   + 4.0547678399999999e+06 A_egs[2,1,215]
   + 4.0547678399999999e+06 A_egs[2,2,215]
   + 4.0547678399999999e+06 A_egs[2,3,215] + 3.90347077e+06 A_egs[3,1,215]
   + 3.90347077e+06 A_egs[3,2,215] + 3.90347077e+06 A_egs[3,3,215]
   + 1.3001973899999999e+06 A_egs[4,1,215]
   + 1.3001973899999999e+06 A_egs[4,2,215]
   + 1.3001973899999999e+06 A_egs[4,3,215] + 1.14663074e+06 A_egs[5,1,215]
   + 1.14663074e+06 A_egs[5,2,215] + 1.14663074e+06 A_egs[5,3,215]
   + 1.3001973899999999e+06 A_egs[6,1,215]
   + 1.3001973899999999e+06 A_egs[6,2,215]
   + 1.3001973899999999e+06 A_egs[6,3,215]
   + 2.4473502000000002e+06 A_egs[7,1,215]
   + 2.4473502000000002e+06 A_egs[7,2,215]
   + 2.4473502000000002e+06 A_egs[7,3,215] + 2.963367e+06 A_egs[8,1,215]
   + 2.963367e+06 A_egs[8,2,215] + 2.963367e+06 A_egs[8,3,215]
   + 817951.6 A_egs[9,1,215] + 817951.6 A_egs[9,2,215]
   + 817951.6 A_egs[9,3,215] + 829980.3 A_egs[10,1,215]
   + 829980.3 A_egs[10,2,215] + 829980.3 A_egs[10,3,215]
   + 293447.37 A_egs[11,1,215] + 293447.37 A_egs[11,2,215]
   + 293447.37 A_egs[11,3,215] + 282497.96 A_egs[12,1,215]
   + 282497.96 A_egs[12,2,215] + 282497.96 A_egs[12,3,215]
   + 302207.12 A_egs[13,1,215] + 302207.12 A_egs[13,2,215]
   + 302207.12 A_egs[13,3,215] + 258408.74 A_egs[14,1,215]
   + 258408.74 A_egs[14,2,215] + 258408.74 A_egs[14,3,215]
   + 300017.09 A_egs[15,1,215] + 300017.09 A_egs[15,2,215]
   + 300017.09 A_egs[15,3,215] + 271548.18 A_egs[16,1,215]
   + 271548.18 A_egs[16,2,215] + 271548.18 A_egs[16,3,215]
   + 329009.92 A_egs[17,1,215] + 329009.92 A_egs[17,2,215]
   + 329009.92 A_egs[17,3,215] + 312321.07 A_egs[18,1,215]
   + 312321.07 A_egs[18,2,215] + 312321.07 A_egs[18,3,215]
   + 317089.26 A_egs[19,1,215] + 317089.26 A_egs[19,2,215]
   + 317089.26 A_egs[19,3,215] + 317089.26 A_egs[20,1,215]
   + 317089.26 A_egs[20,2,215] + 317089.26 A_egs[20,3,215]
   + 293247.94 A_egs[21,1,215] + 293247.94 A_egs[21,2,215]
   + 293247.94 A_egs[21,3,215] + 330386.32 A_egs[22,1,215]
   + 330386.32 A_egs[22,2,215] + 330386.32 A_egs[22,3,215]
   + 330386.32 A_egs[23,1,215] + 330386.32 A_egs[23,2,215]
   + 330386.32 A_egs[23,3,215] + 325632.56 A_egs[24,1,215]
   + 325632.56 A_egs[24,2,215] + 325632.56 A_egs[24,3,215]
   + 320878.8 A_egs[25,1,215] + 320878.8 A_egs[25,2,215]
   + 320878.8 A_egs[25,3,215] + 193205.12 A_egs[26,1,215]
   + 193205.12 A_egs[26,2,215] + 193205.12 A_egs[26,3,215]
   + 218337.37 A_egs[27,1,215] + 218337.37 A_egs[27,2,215]
   + 218337.37 A_egs[27,3,215] + 193205.12 A_egs[28,1,215]
   + 193205.12 A_egs[28,2,215] + 193205.12 A_egs[28,3,215]
   + 185351.13 A_egs[29,1,215] + 185351.13 A_egs[29,2,215]
   + 185351.13 A_egs[29,3,215] + 193205.12 A_egs[30,1,215]
   + 193205.12 A_egs[30,2,215] + 193205.12 A_egs[30,3,215]
   + 199488.09 A_egs[31,1,215] + 199488.09 A_egs[31,2,215]
   + 199488.09 A_egs[31,3,215] + 286356.69 A_egs[32,1,215]
   + 286356.69 A_egs[32,2,215] + 286356.69 A_egs[32,3,215]
   + 300101.82 A_egs[33,1,215] + 300101.82 A_egs[33,2,215]
   + 300101.82 A_egs[33,3,215] + 268029.85 A_egs[34,1,215]
   + 268029.85 A_egs[34,2,215] + 268029.85 A_egs[34,3,215]
   + 254284.72 A_egs[35,1,215] + 254284.72 A_egs[35,2,215]
   + 254284.72 A_egs[35,3,215] + 398419.7 A_egs[36,1,215]
   + 398419.7 A_egs[36,2,215] + 398419.7 A_egs[36,3,215]
   + 352886.02 A_egs[37,1,215] + 352886.02 A_egs[37,2,215]
   + 352886.02 A_egs[37,3,215] + 398419.7 A_egs[38,1,215]
   + 398419.7 A_egs[38,2,215] + 398419.7 A_egs[38,3,215]
   + 395573.66 A_egs[39,1,215] + 395573.66 A_egs[39,2,215]
   + 395573.66 A_egs[39,3,215] + 243006.75 A_egs[40,1,215]
   + 243006.75 A_egs[40,2,215] + 243006.75 A_egs[40,3,215]
   + 268279.23 A_egs[41,1,215] + 268279.23 A_egs[41,2,215]
   + 268279.23 A_egs[41,3,215] + 266335.25 A_egs[42,1,215]
   + 266335.25 A_egs[42,2,215] + 266335.25 A_egs[42,3,215]
   + 227454.17 A_egs[43,1,215] + 227454.17 A_egs[43,2,215]
   + 227454.17 A_egs[43,3,215] + 250782.67 A_egs[44,1,215]
   + 250782.67 A_egs[44,2,215] + 250782.67 A_egs[44,3,215]
   + 231732.48 A_egs[45,1,215] + 231732.48 A_egs[45,2,215]
   + 231732.48 A_egs[45,3,215] + 264561.1 A_egs[46,1,215]
   + 264561.1 A_egs[46,2,215] + 264561.1 A_egs[46,3,215]
   + 214352.47 A_egs[47,1,215] + 214352.47 A_egs[47,2,215]
   + 214352.47 A_egs[47,3,215] + 256836.61 A_egs[48,1,215]
   + 256836.61 A_egs[48,2,215] + 256836.61 A_egs[48,3,215]
   + 264561.1 A_egs[49,1,215] + 264561.1 A_egs[49,2,215]
   + 264561.1 A_egs[49,3,215] + 304666.88 A_egs[50,1,215]
   + 304666.88 A_egs[50,2,215] + 304666.88 A_egs[50,3,215]
   + 363508.8 A_egs[51,1,215] + 363508.8 A_egs[51,2,215]
   + 363508.8 A_egs[51,3,215] + 320233.92 A_egs[52,1,215]
   + 320233.92 A_egs[52,2,215] + 320233.92 A_egs[52,3,215]
   + 395243.52 A_egs[53,1,215] + 395243.52 A_egs[53,2,215]
   + 395243.52 A_egs[53,3,215] + 334658.88 A_egs[54,1,215]
   + 334658.88 A_egs[54,2,215] + 334658.88 A_egs[54,3,215]
   + 300192 A_egs[55,1,215] + 300192 A_egs[55,2,215]
   + 300192 A_egs[55,3,215] + 312596.64 A_egs[56,1,215]
   + 312596.64 A_egs[56,2,215] + 312596.64 A_egs[56,3,215]
   + 322520.64 A_egs[57,1,215] + 322520.64 A_egs[57,2,215]
   + 322520.64 A_egs[57,3,215] + 302673.12 A_egs[58,1,215]
   + 302673.12 A_egs[58,2,215] + 302673.12 A_egs[58,3,215]
   + 307634.88 A_egs[59,1,215] + 307634.88 A_egs[59,2,215]
   + 307634.88 A_egs[59,3,215] + 257967.84 A_egs[60,1,215]
   + 257967.84 A_egs[60,2,215] + 257967.84 A_egs[60,3,215]
   + 268807.2 A_egs[61,1,215] + 268807.2 A_egs[61,2,215]
   + 268807.2 A_egs[61,3,215] + 281813.76 A_egs[62,1,215]
   + 281813.76 A_egs[62,2,215] + 281813.76 A_egs[62,3,215]
   + 255800.16 A_egs[63,1,215] + 255800.16 A_egs[63,2,215]
   + 255800.16 A_egs[63,3,215] + 292591.68 A_egs[64,1,215]
   + 292591.68 A_egs[64,2,215] + 292591.68 A_egs[64,3,215]
   + 305692.8 A_egs[65,1,215] + 305692.8 A_egs[65,2,215]
   + 305692.8 A_egs[65,3,215] + 294775.2 A_egs[66,1,215]
   + 294775.2 A_egs[66,2,215] + 294775.2 A_egs[66,3,215]
   + 283857.6 A_egs[67,1,215] + 283857.6 A_egs[67,2,215]
   + 283857.6 A_egs[67,3,215] + 221607.36 A_egs[68,1,215]
   + 221607.36 A_egs[68,2,215] + 221607.36 A_egs[68,3,215]
   + 236760 A_egs[69,1,215] + 236760 A_egs[69,2,215]
   + 236760 A_egs[69,3,215] + 236760 A_egs[70,1,215]
   + 236760 A_egs[70,2,215] + 236760 A_egs[70,3,215]
   + 255700.8 A_egs[71,1,215] + 255700.8 A_egs[71,2,215]
   + 255700.8 A_egs[71,3,215] + 913320 A_egs[72,1,215]
   + 913320 A_egs[72,2,215] + 913320 A_egs[72,3,215]
   + 239484.96 A_egs[73,1,215] + 239484.96 A_egs[73,2,215]
   + 239484.96 A_egs[73,3,215] + 227203.68 A_egs[74,1,215]
   + 227203.68 A_egs[74,2,215] + 227203.68 A_egs[74,3,215]
   + 268140.96 A_egs[75,1,215] + 268140.96 A_egs[75,2,215]
   + 268140.96 A_egs[75,3,215] + 263536.32 A_egs[76,1,215]
   + 263536.32 A_egs[76,2,215] + 263536.32 A_egs[76,3,215]
   + 280007.52 A_egs[77,1,215] + 280007.52 A_egs[77,2,215]
   + 280007.52 A_egs[77,3,215] + 255300.96 A_egs[78,1,215]
   + 255300.96 A_egs[78,2,215] + 255300.96 A_egs[78,3,215]
   + 98675.51999999999 A_egs[79,1,215] + 98675.51999999999 A_egs[79,2,215]
   + 98675.51999999999 A_egs[79,3,215] + 113390.4 A_egs[80,1,215]
   + 113390.4 A_egs[80,2,215] + 113390.4 A_egs[80,3,215]
   + 112524.96 A_egs[81,1,215] + 112524.96 A_egs[81,2,215]
   + 112524.96 A_egs[81,3,215] + 119449.44 A_egs[82,1,215]
   + 119449.44 A_egs[82,2,215] + 119449.44 A_egs[82,3,215]
   + 100406.88 A_egs[83,1,215] + 100406.88 A_egs[83,2,215]
   + 100406.88 A_egs[83,3,215] + 118584 A_egs[84,1,215]
   + 118584 A_egs[84,2,215] + 118584 A_egs[84,3,215]
   + 117718.08 A_egs[85,1,215] + 117718.08 A_egs[85,2,215]
   + 117718.08 A_egs[85,3,215] + 572056.7999999999 A_egs[86,1,215]
   + 572056.7999999999 A_egs[86,2,215] + 572056.7999999999 A_egs[86,3,215]
   + 160477.44 A_egs[87,1,215] + 160477.44 A_egs[87,2,215]
   + 160477.44 A_egs[87,3,215] + 159271.2 A_egs[88,1,215]
   + 159271.2 A_egs[88,2,215] + 159271.2 A_egs[88,3,215]
   + 155651.04 A_egs[89,1,215] + 155651.04 A_egs[89,2,215]
   + 155651.04 A_egs[89,3,215] + 166510.56 A_egs[90,1,215]
   + 166510.56 A_egs[90,2,215] + 166510.56 A_egs[90,3,215]
   + 445923.72 A_egs[91,1,215] + 445923.72 A_egs[91,2,215]
   + 445923.72 A_egs[91,3,215] + 504888.48 A_egs[92,1,215]
   + 504888.48 A_egs[92,2,215] + 504888.48 A_egs[92,3,215]
   + 965826.4400000001 A_egs[93,1,215] + 965826.4400000001 A_egs[93,2,215]
   + 965826.4400000001 A_egs[93,3,215] + 248808.24 A_egs[94,1,215]
   + 248808.24 A_egs[94,2,215] + 248808.24 A_egs[94,3,215]
   + 251257.14 A_egs[95,1,215] + 251257.14 A_egs[95,2,215]
   + 251257.14 A_egs[95,3,215] + 298357.65 A_egs[96,1,215]
   + 298357.65 A_egs[96,2,215] + 298357.65 A_egs[96,3,215]
   + 284072.4 A_egs[97,1,215] + 284072.4 A_egs[97,2,215]
   + 284072.4 A_egs[97,3,215] + 160769.07 A_egs[98,1,215]
   + 160769.07 A_egs[98,2,215] + 160769.07 A_egs[98,3,215]
   + 143385.14 A_egs[99,1,215] + 143385.14 A_egs[99,2,215]
   + 143385.14 A_egs[99,3,215] + 129837.07 A_egs[100,1,215]
   + 129837.07 A_egs[100,2,215] + 129837.07 A_egs[100,3,215]
   + 160459.75 A_egs[101,1,215] + 160459.75 A_egs[101,2,215]
   + 160459.75 A_egs[101,3,215] + 145132.4 A_egs[102,1,215]
   + 145132.4 A_egs[102,2,215] + 145132.4 A_egs[102,3,215]
   + 117954.54 A_egs[103,1,215] + 117954.54 A_egs[103,2,215]
   + 117954.54 A_egs[103,3,215] + 152565 A_egs[104,1,215]
   + 152565 A_egs[104,2,215] + 152565 A_egs[104,3,215]
   + 153436.8 A_egs[105,1,215] + 153436.8 A_egs[105,2,215]
   + 153436.8 A_egs[105,3,215] + 224183.37 A_egs[106,1,215]
   + 224183.37 A_egs[106,2,215] + 224183.37 A_egs[106,3,215]
   + 371067.14 A_egs[107,1,215] + 371067.14 A_egs[107,2,215]
   + 371067.14 A_egs[107,3,215] + 338801.2 A_egs[108,1,215]
   + 338801.2 A_egs[108,2,215] + 338801.2 A_egs[108,3,215]
   + 317270.34 A_egs[109,1,215] + 317270.34 A_egs[109,2,215]
   + 317270.34 A_egs[109,3,215] + 210890.24 A_egs[110,1,215]
   + 210890.24 A_egs[110,2,215] + 210890.24 A_egs[110,3,215]
   + 252752.4 A_egs[111,1,215] + 252752.4 A_egs[111,2,215]
   + 252752.4 A_egs[111,3,215] + 332885.7 A_egs[112,1,215]
   + 332885.7 A_egs[112,2,215] + 332885.7 A_egs[112,3,215]
   + 380814.52 A_egs[113,1,215] + 380814.52 A_egs[113,2,215]
   + 380814.52 A_egs[113,3,215] + 449694 A_egs[114,1,215]
   + 449694 A_egs[114,2,215] + 449694 A_egs[114,3,215]
   + 169093.2 A_egs[115,1,215] + 169093.2 A_egs[115,2,215]
   + 169093.2 A_egs[115,3,215] + 617110.2 A_egs[116,1,215]
   + 617110.2 A_egs[116,2,215] + 617110.2 A_egs[116,3,215]
   + 546598.8 A_egs[117,1,215] + 546598.8 A_egs[117,2,215]
   + 546598.8 A_egs[117,3,215] + 788319 A_egs[118,1,215]
   + 788319 A_egs[118,2,215] + 788319 A_egs[118,3,215]
   + 990080.2999999999 A_egs[119,1,215]
   + 990080.2999999999 A_egs[119,2,215]
   + 990080.2999999999 A_egs[119,3,215]
   + 1.3150223999999999e+06 A_egs[120,1,215]
   + 1.3150223999999999e+06 A_egs[120,2,215]
   + 1.3150223999999999e+06 A_egs[120,3,215]
   + 1.7113959200000002e+06 A_egs[121,1,215]
   + 1.7113959200000002e+06 A_egs[121,2,215]
   + 1.7113959200000002e+06 A_egs[121,3,215]
   + 568275.2999999999 A_egs[122,1,215]
   + 568275.2999999999 A_egs[122,2,215]
   + 568275.2999999999 A_egs[122,3,215] + 609142.17 A_egs[123,1,215]
   + 609142.17 A_egs[123,2,215] + 609142.17 A_egs[123,3,215]
   + 641495.4 A_egs[124,1,215] + 641495.4 A_egs[124,2,215]
   + 641495.4 A_egs[124,3,215] + 787789.26 A_egs[125,1,215]
   + 787789.26 A_egs[125,2,215] + 787789.26 A_egs[125,3,215]
   - 50 X_gs[1,215] - 100 X_gs[2,215] - 200 X_gs[3,215] <= 0
 Energy_Capacity_at_Location_216: 3.7219139899999998e+06 A_egs[1,1,216]
   + 3.7219139899999998e+06 A_egs[1,2,216]
   + 3.7219139899999998e+06 A_egs[1,3,216]
   + 4.0547678399999999e+06 A_egs[2,1,216]
   + 4.0547678399999999e+06 A_egs[2,2,216]
   + 4.0547678399999999e+06 A_egs[2,3,216] + 3.90347077e+06 A_egs[3,1,216]
   + 3.90347077e+06 A_egs[3,2,216] + 3.90347077e+06 A_egs[3,3,216]
   + 1.3001973899999999e+06 A_egs[4,1,216]
   + 1.3001973899999999e+06 A_egs[4,2,216]
   + 1.3001973899999999e+06 A_egs[4,3,216] + 1.14663074e+06 A_egs[5,1,216]
   + 1.14663074e+06 A_egs[5,2,216] + 1.14663074e+06 A_egs[5,3,216]
   + 1.3001973899999999e+06 A_egs[6,1,216]
   + 1.3001973899999999e+06 A_egs[6,2,216]
   + 1.3001973899999999e+06 A_egs[6,3,216]
   + 2.4473502000000002e+06 A_egs[7,1,216]
   + 2.4473502000000002e+06 A_egs[7,2,216]
   + 2.4473502000000002e+06 A_egs[7,3,216] + 2.963367e+06 A_egs[8,1,216]
   + 2.963367e+06 A_egs[8,2,216] + 2.963367e+06 A_egs[8,3,216]
   + 817951.6 A_egs[9,1,216] + 817951.6 A_egs[9,2,216]
   + 817951.6 A_egs[9,3,216] + 829980.3 A_egs[10,1,216]
   + 829980.3 A_egs[10,2,216] + 829980.3 A_egs[10,3,216]
   + 293447.37 A_egs[11,1,216] + 293447.37 A_egs[11,2,216]
   + 293447.37 A_egs[11,3,216] + 282497.96 A_egs[12,1,216]
   + 282497.96 A_egs[12,2,216] + 282497.96 A_egs[12,3,216]
   + 302207.12 A_egs[13,1,216] + 302207.12 A_egs[13,2,216]
   + 302207.12 A_egs[13,3,216] + 258408.74 A_egs[14,1,216]
   + 258408.74 A_egs[14,2,216] + 258408.74 A_egs[14,3,216]
   + 300017.09 A_egs[15,1,216] + 300017.09 A_egs[15,2,216]
   + 300017.09 A_egs[15,3,216] + 271548.18 A_egs[16,1,216]
   + 271548.18 A_egs[16,2,216] + 271548.18 A_egs[16,3,216]
   + 329009.92 A_egs[17,1,216] + 329009.92 A_egs[17,2,216]
   + 329009.92 A_egs[17,3,216] + 312321.07 A_egs[18,1,216]
   + 312321.07 A_egs[18,2,216] + 312321.07 A_egs[18,3,216]
   + 317089.26 A_egs[19,1,216] + 317089.26 A_egs[19,2,216]
   + 317089.26 A_egs[19,3,216] + 317089.26 A_egs[20,1,216]
   + 317089.26 A_egs[20,2,216] + 317089.26 A_egs[20,3,216]
   + 293247.94 A_egs[21,1,216] + 293247.94 A_egs[21,2,216]
   + 293247.94 A_egs[21,3,216] + 330386.32 A_egs[22,1,216]
   + 330386.32 A_egs[22,2,216] + 330386.32 A_egs[22,3,216]
   + 330386.32 A_egs[23,1,216] + 330386.32 A_egs[23,2,216]
   + 330386.32 A_egs[23,3,216] + 325632.56 A_egs[24,1,216]
   + 325632.56 A_egs[24,2,216] + 325632.56 A_egs[24,3,216]
   + 320878.8 A_egs[25,1,216] + 320878.8 A_egs[25,2,216]
   + 320878.8 A_egs[25,3,216] + 193205.12 A_egs[26,1,216]
   + 193205.12 A_egs[26,2,216] + 193205.12 A_egs[26,3,216]
   + 218337.37 A_egs[27,1,216] + 218337.37 A_egs[27,2,216]
   + 218337.37 A_egs[27,3,216] + 193205.12 A_egs[28,1,216]
   + 193205.12 A_egs[28,2,216] + 193205.12 A_egs[28,3,216]
   + 185351.13 A_egs[29,1,216] + 185351.13 A_egs[29,2,216]
   + 185351.13 A_egs[29,3,216] + 193205.12 A_egs[30,1,216]
   + 193205.12 A_egs[30,2,216] + 193205.12 A_egs[30,3,216]
   + 199488.09 A_egs[31,1,216] + 199488.09 A_egs[31,2,216]
   + 199488.09 A_egs[31,3,216] + 286356.69 A_egs[32,1,216]
   + 286356.69 A_egs[32,2,216] + 286356.69 A_egs[32,3,216]
   + 300101.82 A_egs[33,1,216] + 300101.82 A_egs[33,2,216]
   + 300101.82 A_egs[33,3,216] + 268029.85 A_egs[34,1,216]
   + 268029.85 A_egs[34,2,216] + 268029.85 A_egs[34,3,216]
   + 254284.72 A_egs[35,1,216] + 254284.72 A_egs[35,2,216]
   + 254284.72 A_egs[35,3,216] + 398419.7 A_egs[36,1,216]
   + 398419.7 A_egs[36,2,216] + 398419.7 A_egs[36,3,216]
   + 352886.02 A_egs[37,1,216] + 352886.02 A_egs[37,2,216]
   + 352886.02 A_egs[37,3,216] + 398419.7 A_egs[38,1,216]
   + 398419.7 A_egs[38,2,216] + 398419.7 A_egs[38,3,216]
   + 395573.66 A_egs[39,1,216] + 395573.66 A_egs[39,2,216]
   + 395573.66 A_egs[39,3,216] + 243006.75 A_egs[40,1,216]
   + 243006.75 A_egs[40,2,216] + 243006.75 A_egs[40,3,216]
   + 268279.23 A_egs[41,1,216] + 268279.23 A_egs[41,2,216]
   + 268279.23 A_egs[41,3,216] + 266335.25 A_egs[42,1,216]
   + 266335.25 A_egs[42,2,216] + 266335.25 A_egs[42,3,216]
   + 227454.17 A_egs[43,1,216] + 227454.17 A_egs[43,2,216]
   + 227454.17 A_egs[43,3,216] + 250782.67 A_egs[44,1,216]
   + 250782.67 A_egs[44,2,216] + 250782.67 A_egs[44,3,216]
   + 231732.48 A_egs[45,1,216] + 231732.48 A_egs[45,2,216]
   + 231732.48 A_egs[45,3,216] + 264561.1 A_egs[46,1,216]
   + 264561.1 A_egs[46,2,216] + 264561.1 A_egs[46,3,216]
   + 214352.47 A_egs[47,1,216] + 214352.47 A_egs[47,2,216]
   + 214352.47 A_egs[47,3,216] + 256836.61 A_egs[48,1,216]
   + 256836.61 A_egs[48,2,216] + 256836.61 A_egs[48,3,216]
   + 264561.1 A_egs[49,1,216] + 264561.1 A_egs[49,2,216]
   + 264561.1 A_egs[49,3,216] + 304666.88 A_egs[50,1,216]
   + 304666.88 A_egs[50,2,216] + 304666.88 A_egs[50,3,216]
   + 363508.8 A_egs[51,1,216] + 363508.8 A_egs[51,2,216]
   + 363508.8 A_egs[51,3,216] + 320233.92 A_egs[52,1,216]
   + 320233.92 A_egs[52,2,216] + 320233.92 A_egs[52,3,216]
   + 395243.52 A_egs[53,1,216] + 395243.52 A_egs[53,2,216]
   + 395243.52 A_egs[53,3,216] + 334658.88 A_egs[54,1,216]
   + 334658.88 A_egs[54,2,216] + 334658.88 A_egs[54,3,216]
   + 300192 A_egs[55,1,216] + 300192 A_egs[55,2,216]
   + 300192 A_egs[55,3,216] + 312596.64 A_egs[56,1,216]
   + 312596.64 A_egs[56,2,216] + 312596.64 A_egs[56,3,216]
   + 322520.64 A_egs[57,1,216] + 322520.64 A_egs[57,2,216]
   + 322520.64 A_egs[57,3,216] + 302673.12 A_egs[58,1,216]
   + 302673.12 A_egs[58,2,216] + 302673.12 A_egs[58,3,216]
   + 307634.88 A_egs[59,1,216] + 307634.88 A_egs[59,2,216]
   + 307634.88 A_egs[59,3,216] + 257967.84 A_egs[60,1,216]
   + 257967.84 A_egs[60,2,216] + 257967.84 A_egs[60,3,216]
   + 268807.2 A_egs[61,1,216] + 268807.2 A_egs[61,2,216]
   + 268807.2 A_egs[61,3,216] + 281813.76 A_egs[62,1,216]
   + 281813.76 A_egs[62,2,216] + 281813.76 A_egs[62,3,216]
   + 255800.16 A_egs[63,1,216] + 255800.16 A_egs[63,2,216]
   + 255800.16 A_egs[63,3,216] + 292591.68 A_egs[64,1,216]
   + 292591.68 A_egs[64,2,216] + 292591.68 A_egs[64,3,216]
   + 305692.8 A_egs[65,1,216] + 305692.8 A_egs[65,2,216]
   + 305692.8 A_egs[65,3,216] + 294775.2 A_egs[66,1,216]
   + 294775.2 A_egs[66,2,216] + 294775.2 A_egs[66,3,216]
   + 283857.6 A_egs[67,1,216] + 283857.6 A_egs[67,2,216]
   + 283857.6 A_egs[67,3,216] + 221607.36 A_egs[68,1,216]
   + 221607.36 A_egs[68,2,216] + 221607.36 A_egs[68,3,216]
   + 236760 A_egs[69,1,216] + 236760 A_egs[69,2,216]
   + 236760 A_egs[69,3,216] + 236760 A_egs[70,1,216]
   + 236760 A_egs[70,2,216] + 236760 A_egs[70,3,216]
   + 255700.8 A_egs[71,1,216] + 255700.8 A_egs[71,2,216]
   + 255700.8 A_egs[71,3,216] + 913320 A_egs[72,1,216]
   + 913320 A_egs[72,2,216] + 913320 A_egs[72,3,216]
   + 239484.96 A_egs[73,1,216] + 239484.96 A_egs[73,2,216]
   + 239484.96 A_egs[73,3,216] + 227203.68 A_egs[74,1,216]
   + 227203.68 A_egs[74,2,216] + 227203.68 A_egs[74,3,216]
   + 268140.96 A_egs[75,1,216] + 268140.96 A_egs[75,2,216]
   + 268140.96 A_egs[75,3,216] + 263536.32 A_egs[76,1,216]
   + 263536.32 A_egs[76,2,216] + 263536.32 A_egs[76,3,216]
   + 280007.52 A_egs[77,1,216] + 280007.52 A_egs[77,2,216]
   + 280007.52 A_egs[77,3,216] + 255300.96 A_egs[78,1,216]
   + 255300.96 A_egs[78,2,216] + 255300.96 A_egs[78,3,216]
   + 98675.51999999999 A_egs[79,1,216] + 98675.51999999999 A_egs[79,2,216]
   + 98675.51999999999 A_egs[79,3,216] + 113390.4 A_egs[80,1,216]
   + 113390.4 A_egs[80,2,216] + 113390.4 A_egs[80,3,216]
   + 112524.96 A_egs[81,1,216] + 112524.96 A_egs[81,2,216]
   + 112524.96 A_egs[81,3,216] + 119449.44 A_egs[82,1,216]
   + 119449.44 A_egs[82,2,216] + 119449.44 A_egs[82,3,216]
   + 100406.88 A_egs[83,1,216] + 100406.88 A_egs[83,2,216]
   + 100406.88 A_egs[83,3,216] + 118584 A_egs[84,1,216]
   + 118584 A_egs[84,2,216] + 118584 A_egs[84,3,216]
   + 117718.08 A_egs[85,1,216] + 117718.08 A_egs[85,2,216]
   + 117718.08 A_egs[85,3,216] + 572056.7999999999 A_egs[86,1,216]
   + 572056.7999999999 A_egs[86,2,216] + 572056.7999999999 A_egs[86,3,216]
   + 160477.44 A_egs[87,1,216] + 160477.44 A_egs[87,2,216]
   + 160477.44 A_egs[87,3,216] + 159271.2 A_egs[88,1,216]
   + 159271.2 A_egs[88,2,216] + 159271.2 A_egs[88,3,216]
   + 155651.04 A_egs[89,1,216] + 155651.04 A_egs[89,2,216]
   + 155651.04 A_egs[89,3,216] + 166510.56 A_egs[90,1,216]
   + 166510.56 A_egs[90,2,216] + 166510.56 A_egs[90,3,216]
   + 445923.72 A_egs[91,1,216] + 445923.72 A_egs[91,2,216]
   + 445923.72 A_egs[91,3,216] + 504888.48 A_egs[92,1,216]
   + 504888.48 A_egs[92,2,216] + 504888.48 A_egs[92,3,216]
   + 965826.4400000001 A_egs[93,1,216] + 965826.4400000001 A_egs[93,2,216]
   + 965826.4400000001 A_egs[93,3,216] + 248808.24 A_egs[94,1,216]
   + 248808.24 A_egs[94,2,216] + 248808.24 A_egs[94,3,216]
   + 251257.14 A_egs[95,1,216] + 251257.14 A_egs[95,2,216]
   + 251257.14 A_egs[95,3,216] + 298357.65 A_egs[96,1,216]
   + 298357.65 A_egs[96,2,216] + 298357.65 A_egs[96,3,216]
   + 284072.4 A_egs[97,1,216] + 284072.4 A_egs[97,2,216]
   + 284072.4 A_egs[97,3,216] + 160769.07 A_egs[98,1,216]
   + 160769.07 A_egs[98,2,216] + 160769.07 A_egs[98,3,216]
   + 143385.14 A_egs[99,1,216] + 143385.14 A_egs[99,2,216]
   + 143385.14 A_egs[99,3,216] + 129837.07 A_egs[100,1,216]
   + 129837.07 A_egs[100,2,216] + 129837.07 A_egs[100,3,216]
   + 160459.75 A_egs[101,1,216] + 160459.75 A_egs[101,2,216]
   + 160459.75 A_egs[101,3,216] + 145132.4 A_egs[102,1,216]
   + 145132.4 A_egs[102,2,216] + 145132.4 A_egs[102,3,216]
   + 117954.54 A_egs[103,1,216] + 117954.54 A_egs[103,2,216]
   + 117954.54 A_egs[103,3,216] + 152565 A_egs[104,1,216]
   + 152565 A_egs[104,2,216] + 152565 A_egs[104,3,216]
   + 153436.8 A_egs[105,1,216] + 153436.8 A_egs[105,2,216]
   + 153436.8 A_egs[105,3,216] + 224183.37 A_egs[106,1,216]
   + 224183.37 A_egs[106,2,216] + 224183.37 A_egs[106,3,216]
   + 371067.14 A_egs[107,1,216] + 371067.14 A_egs[107,2,216]
   + 371067.14 A_egs[107,3,216] + 338801.2 A_egs[108,1,216]
   + 338801.2 A_egs[108,2,216] + 338801.2 A_egs[108,3,216]
   + 317270.34 A_egs[109,1,216] + 317270.34 A_egs[109,2,216]
   + 317270.34 A_egs[109,3,216] + 210890.24 A_egs[110,1,216]
   + 210890.24 A_egs[110,2,216] + 210890.24 A_egs[110,3,216]
   + 252752.4 A_egs[111,1,216] + 252752.4 A_egs[111,2,216]
   + 252752.4 A_egs[111,3,216] + 332885.7 A_egs[112,1,216]
   + 332885.7 A_egs[112,2,216] + 332885.7 A_egs[112,3,216]
   + 380814.52 A_egs[113,1,216] + 380814.52 A_egs[113,2,216]
   + 380814.52 A_egs[113,3,216] + 449694 A_egs[114,1,216]
   + 449694 A_egs[114,2,216] + 449694 A_egs[114,3,216]
   + 169093.2 A_egs[115,1,216] + 169093.2 A_egs[115,2,216]
   + 169093.2 A_egs[115,3,216] + 617110.2 A_egs[116,1,216]
   + 617110.2 A_egs[116,2,216] + 617110.2 A_egs[116,3,216]
   + 546598.8 A_egs[117,1,216] + 546598.8 A_egs[117,2,216]
   + 546598.8 A_egs[117,3,216] + 788319 A_egs[118,1,216]
   + 788319 A_egs[118,2,216] + 788319 A_egs[118,3,216]
   + 990080.2999999999 A_egs[119,1,216]
   + 990080.2999999999 A_egs[119,2,216]
   + 990080.2999999999 A_egs[119,3,216]
   + 1.3150223999999999e+06 A_egs[120,1,216]
   + 1.3150223999999999e+06 A_egs[120,2,216]
   + 1.3150223999999999e+06 A_egs[120,3,216]
   + 1.7113959200000002e+06 A_egs[121,1,216]
   + 1.7113959200000002e+06 A_egs[121,2,216]
   + 1.7113959200000002e+06 A_egs[121,3,216]
   + 568275.2999999999 A_egs[122,1,216]
   + 568275.2999999999 A_egs[122,2,216]
   + 568275.2999999999 A_egs[122,3,216] + 609142.17 A_egs[123,1,216]
   + 609142.17 A_egs[123,2,216] + 609142.17 A_egs[123,3,216]
   + 641495.4 A_egs[124,1,216] + 641495.4 A_egs[124,2,216]
   + 641495.4 A_egs[124,3,216] + 787789.26 A_egs[125,1,216]
   + 787789.26 A_egs[125,2,216] + 787789.26 A_egs[125,3,216]
   - 50 X_gs[1,216] - 100 X_gs[2,216] - 200 X_gs[3,216] <= 0
 Energy_Capacity_at_Location_217: 3.7219139899999998e+06 A_egs[1,1,217]
   + 3.7219139899999998e+06 A_egs[1,2,217]
   + 3.7219139899999998e+06 A_egs[1,3,217]
   + 4.0547678399999999e+06 A_egs[2,1,217]
   + 4.0547678399999999e+06 A_egs[2,2,217]
   + 4.0547678399999999e+06 A_egs[2,3,217] + 3.90347077e+06 A_egs[3,1,217]
   + 3.90347077e+06 A_egs[3,2,217] + 3.90347077e+06 A_egs[3,3,217]
   + 1.3001973899999999e+06 A_egs[4,1,217]
   + 1.3001973899999999e+06 A_egs[4,2,217]
   + 1.3001973899999999e+06 A_egs[4,3,217] + 1.14663074e+06 A_egs[5,1,217]
   + 1.14663074e+06 A_egs[5,2,217] + 1.14663074e+06 A_egs[5,3,217]
   + 1.3001973899999999e+06 A_egs[6,1,217]
   + 1.3001973899999999e+06 A_egs[6,2,217]
   + 1.3001973899999999e+06 A_egs[6,3,217]
   + 2.4473502000000002e+06 A_egs[7,1,217]
   + 2.4473502000000002e+06 A_egs[7,2,217]
   + 2.4473502000000002e+06 A_egs[7,3,217] + 2.963367e+06 A_egs[8,1,217]
   + 2.963367e+06 A_egs[8,2,217] + 2.963367e+06 A_egs[8,3,217]
   + 817951.6 A_egs[9,1,217] + 817951.6 A_egs[9,2,217]
   + 817951.6 A_egs[9,3,217] + 829980.3 A_egs[10,1,217]
   + 829980.3 A_egs[10,2,217] + 829980.3 A_egs[10,3,217]
   + 293447.37 A_egs[11,1,217] + 293447.37 A_egs[11,2,217]
   + 293447.37 A_egs[11,3,217] + 282497.96 A_egs[12,1,217]
   + 282497.96 A_egs[12,2,217] + 282497.96 A_egs[12,3,217]
   + 302207.12 A_egs[13,1,217] + 302207.12 A_egs[13,2,217]
   + 302207.12 A_egs[13,3,217] + 258408.74 A_egs[14,1,217]
   + 258408.74 A_egs[14,2,217] + 258408.74 A_egs[14,3,217]
   + 300017.09 A_egs[15,1,217] + 300017.09 A_egs[15,2,217]
   + 300017.09 A_egs[15,3,217] + 271548.18 A_egs[16,1,217]
   + 271548.18 A_egs[16,2,217] + 271548.18 A_egs[16,3,217]
   + 329009.92 A_egs[17,1,217] + 329009.92 A_egs[17,2,217]
   + 329009.92 A_egs[17,3,217] + 312321.07 A_egs[18,1,217]
   + 312321.07 A_egs[18,2,217] + 312321.07 A_egs[18,3,217]
   + 317089.26 A_egs[19,1,217] + 317089.26 A_egs[19,2,217]
   + 317089.26 A_egs[19,3,217] + 317089.26 A_egs[20,1,217]
   + 317089.26 A_egs[20,2,217] + 317089.26 A_egs[20,3,217]
   + 293247.94 A_egs[21,1,217] + 293247.94 A_egs[21,2,217]
   + 293247.94 A_egs[21,3,217] + 330386.32 A_egs[22,1,217]
   + 330386.32 A_egs[22,2,217] + 330386.32 A_egs[22,3,217]
   + 330386.32 A_egs[23,1,217] + 330386.32 A_egs[23,2,217]
   + 330386.32 A_egs[23,3,217] + 325632.56 A_egs[24,1,217]
   + 325632.56 A_egs[24,2,217] + 325632.56 A_egs[24,3,217]
   + 320878.8 A_egs[25,1,217] + 320878.8 A_egs[25,2,217]
   + 320878.8 A_egs[25,3,217] + 193205.12 A_egs[26,1,217]
   + 193205.12 A_egs[26,2,217] + 193205.12 A_egs[26,3,217]
   + 218337.37 A_egs[27,1,217] + 218337.37 A_egs[27,2,217]
   + 218337.37 A_egs[27,3,217] + 193205.12 A_egs[28,1,217]
   + 193205.12 A_egs[28,2,217] + 193205.12 A_egs[28,3,217]
   + 185351.13 A_egs[29,1,217] + 185351.13 A_egs[29,2,217]
   + 185351.13 A_egs[29,3,217] + 193205.12 A_egs[30,1,217]
   + 193205.12 A_egs[30,2,217] + 193205.12 A_egs[30,3,217]
   + 199488.09 A_egs[31,1,217] + 199488.09 A_egs[31,2,217]
   + 199488.09 A_egs[31,3,217] + 286356.69 A_egs[32,1,217]
   + 286356.69 A_egs[32,2,217] + 286356.69 A_egs[32,3,217]
   + 300101.82 A_egs[33,1,217] + 300101.82 A_egs[33,2,217]
   + 300101.82 A_egs[33,3,217] + 268029.85 A_egs[34,1,217]
   + 268029.85 A_egs[34,2,217] + 268029.85 A_egs[34,3,217]
   + 254284.72 A_egs[35,1,217] + 254284.72 A_egs[35,2,217]
   + 254284.72 A_egs[35,3,217] + 398419.7 A_egs[36,1,217]
   + 398419.7 A_egs[36,2,217] + 398419.7 A_egs[36,3,217]
   + 352886.02 A_egs[37,1,217] + 352886.02 A_egs[37,2,217]
   + 352886.02 A_egs[37,3,217] + 398419.7 A_egs[38,1,217]
   + 398419.7 A_egs[38,2,217] + 398419.7 A_egs[38,3,217]
   + 395573.66 A_egs[39,1,217] + 395573.66 A_egs[39,2,217]
   + 395573.66 A_egs[39,3,217] + 243006.75 A_egs[40,1,217]
   + 243006.75 A_egs[40,2,217] + 243006.75 A_egs[40,3,217]
   + 268279.23 A_egs[41,1,217] + 268279.23 A_egs[41,2,217]
   + 268279.23 A_egs[41,3,217] + 266335.25 A_egs[42,1,217]
   + 266335.25 A_egs[42,2,217] + 266335.25 A_egs[42,3,217]
   + 227454.17 A_egs[43,1,217] + 227454.17 A_egs[43,2,217]
   + 227454.17 A_egs[43,3,217] + 250782.67 A_egs[44,1,217]
   + 250782.67 A_egs[44,2,217] + 250782.67 A_egs[44,3,217]
   + 231732.48 A_egs[45,1,217] + 231732.48 A_egs[45,2,217]
   + 231732.48 A_egs[45,3,217] + 264561.1 A_egs[46,1,217]
   + 264561.1 A_egs[46,2,217] + 264561.1 A_egs[46,3,217]
   + 214352.47 A_egs[47,1,217] + 214352.47 A_egs[47,2,217]
   + 214352.47 A_egs[47,3,217] + 256836.61 A_egs[48,1,217]
   + 256836.61 A_egs[48,2,217] + 256836.61 A_egs[48,3,217]
   + 264561.1 A_egs[49,1,217] + 264561.1 A_egs[49,2,217]
   + 264561.1 A_egs[49,3,217] + 304666.88 A_egs[50,1,217]
   + 304666.88 A_egs[50,2,217] + 304666.88 A_egs[50,3,217]
   + 363508.8 A_egs[51,1,217] + 363508.8 A_egs[51,2,217]
   + 363508.8 A_egs[51,3,217] + 320233.92 A_egs[52,1,217]
   + 320233.92 A_egs[52,2,217] + 320233.92 A_egs[52,3,217]
   + 395243.52 A_egs[53,1,217] + 395243.52 A_egs[53,2,217]
   + 395243.52 A_egs[53,3,217] + 334658.88 A_egs[54,1,217]
   + 334658.88 A_egs[54,2,217] + 334658.88 A_egs[54,3,217]
   + 300192 A_egs[55,1,217] + 300192 A_egs[55,2,217]
   + 300192 A_egs[55,3,217] + 312596.64 A_egs[56,1,217]
   + 312596.64 A_egs[56,2,217] + 312596.64 A_egs[56,3,217]
   + 322520.64 A_egs[57,1,217] + 322520.64 A_egs[57,2,217]
   + 322520.64 A_egs[57,3,217] + 302673.12 A_egs[58,1,217]
   + 302673.12 A_egs[58,2,217] + 302673.12 A_egs[58,3,217]
   + 307634.88 A_egs[59,1,217] + 307634.88 A_egs[59,2,217]
   + 307634.88 A_egs[59,3,217] + 257967.84 A_egs[60,1,217]
   + 257967.84 A_egs[60,2,217] + 257967.84 A_egs[60,3,217]
   + 268807.2 A_egs[61,1,217] + 268807.2 A_egs[61,2,217]
   + 268807.2 A_egs[61,3,217] + 281813.76 A_egs[62,1,217]
   + 281813.76 A_egs[62,2,217] + 281813.76 A_egs[62,3,217]
   + 255800.16 A_egs[63,1,217] + 255800.16 A_egs[63,2,217]
   + 255800.16 A_egs[63,3,217] + 292591.68 A_egs[64,1,217]
   + 292591.68 A_egs[64,2,217] + 292591.68 A_egs[64,3,217]
   + 305692.8 A_egs[65,1,217] + 305692.8 A_egs[65,2,217]
   + 305692.8 A_egs[65,3,217] + 294775.2 A_egs[66,1,217]
   + 294775.2 A_egs[66,2,217] + 294775.2 A_egs[66,3,217]
   + 283857.6 A_egs[67,1,217] + 283857.6 A_egs[67,2,217]
   + 283857.6 A_egs[67,3,217] + 221607.36 A_egs[68,1,217]
   + 221607.36 A_egs[68,2,217] + 221607.36 A_egs[68,3,217]
   + 236760 A_egs[69,1,217] + 236760 A_egs[69,2,217]
   + 236760 A_egs[69,3,217] + 236760 A_egs[70,1,217]
   + 236760 A_egs[70,2,217] + 236760 A_egs[70,3,217]
   + 255700.8 A_egs[71,1,217] + 255700.8 A_egs[71,2,217]
   + 255700.8 A_egs[71,3,217] + 913320 A_egs[72,1,217]
   + 913320 A_egs[72,2,217] + 913320 A_egs[72,3,217]
   + 239484.96 A_egs[73,1,217] + 239484.96 A_egs[73,2,217]
   + 239484.96 A_egs[73,3,217] + 227203.68 A_egs[74,1,217]
   + 227203.68 A_egs[74,2,217] + 227203.68 A_egs[74,3,217]
   + 268140.96 A_egs[75,1,217] + 268140.96 A_egs[75,2,217]
   + 268140.96 A_egs[75,3,217] + 263536.32 A_egs[76,1,217]
   + 263536.32 A_egs[76,2,217] + 263536.32 A_egs[76,3,217]
   + 280007.52 A_egs[77,1,217] + 280007.52 A_egs[77,2,217]
   + 280007.52 A_egs[77,3,217] + 255300.96 A_egs[78,1,217]
   + 255300.96 A_egs[78,2,217] + 255300.96 A_egs[78,3,217]
   + 98675.51999999999 A_egs[79,1,217] + 98675.51999999999 A_egs[79,2,217]
   + 98675.51999999999 A_egs[79,3,217] + 113390.4 A_egs[80,1,217]
   + 113390.4 A_egs[80,2,217] + 113390.4 A_egs[80,3,217]
   + 112524.96 A_egs[81,1,217] + 112524.96 A_egs[81,2,217]
   + 112524.96 A_egs[81,3,217] + 119449.44 A_egs[82,1,217]
   + 119449.44 A_egs[82,2,217] + 119449.44 A_egs[82,3,217]
   + 100406.88 A_egs[83,1,217] + 100406.88 A_egs[83,2,217]
   + 100406.88 A_egs[83,3,217] + 118584 A_egs[84,1,217]
   + 118584 A_egs[84,2,217] + 118584 A_egs[84,3,217]
   + 117718.08 A_egs[85,1,217] + 117718.08 A_egs[85,2,217]
   + 117718.08 A_egs[85,3,217] + 572056.7999999999 A_egs[86,1,217]
   + 572056.7999999999 A_egs[86,2,217] + 572056.7999999999 A_egs[86,3,217]
   + 160477.44 A_egs[87,1,217] + 160477.44 A_egs[87,2,217]
   + 160477.44 A_egs[87,3,217] + 159271.2 A_egs[88,1,217]
   + 159271.2 A_egs[88,2,217] + 159271.2 A_egs[88,3,217]
   + 155651.04 A_egs[89,1,217] + 155651.04 A_egs[89,2,217]
   + 155651.04 A_egs[89,3,217] + 166510.56 A_egs[90,1,217]
   + 166510.56 A_egs[90,2,217] + 166510.56 A_egs[90,3,217]
   + 445923.72 A_egs[91,1,217] + 445923.72 A_egs[91,2,217]
   + 445923.72 A_egs[91,3,217] + 504888.48 A_egs[92,1,217]
   + 504888.48 A_egs[92,2,217] + 504888.48 A_egs[92,3,217]
   + 965826.4400000001 A_egs[93,1,217] + 965826.4400000001 A_egs[93,2,217]
   + 965826.4400000001 A_egs[93,3,217] + 248808.24 A_egs[94,1,217]
   + 248808.24 A_egs[94,2,217] + 248808.24 A_egs[94,3,217]
   + 251257.14 A_egs[95,1,217] + 251257.14 A_egs[95,2,217]
   + 251257.14 A_egs[95,3,217] + 298357.65 A_egs[96,1,217]
   + 298357.65 A_egs[96,2,217] + 298357.65 A_egs[96,3,217]
   + 284072.4 A_egs[97,1,217] + 284072.4 A_egs[97,2,217]
   + 284072.4 A_egs[97,3,217] + 160769.07 A_egs[98,1,217]
   + 160769.07 A_egs[98,2,217] + 160769.07 A_egs[98,3,217]
   + 143385.14 A_egs[99,1,217] + 143385.14 A_egs[99,2,217]
   + 143385.14 A_egs[99,3,217] + 129837.07 A_egs[100,1,217]
   + 129837.07 A_egs[100,2,217] + 129837.07 A_egs[100,3,217]
   + 160459.75 A_egs[101,1,217] + 160459.75 A_egs[101,2,217]
   + 160459.75 A_egs[101,3,217] + 145132.4 A_egs[102,1,217]
   + 145132.4 A_egs[102,2,217] + 145132.4 A_egs[102,3,217]
   + 117954.54 A_egs[103,1,217] + 117954.54 A_egs[103,2,217]
   + 117954.54 A_egs[103,3,217] + 152565 A_egs[104,1,217]
   + 152565 A_egs[104,2,217] + 152565 A_egs[104,3,217]
   + 153436.8 A_egs[105,1,217] + 153436.8 A_egs[105,2,217]
   + 153436.8 A_egs[105,3,217] + 224183.37 A_egs[106,1,217]
   + 224183.37 A_egs[106,2,217] + 224183.37 A_egs[106,3,217]
   + 371067.14 A_egs[107,1,217] + 371067.14 A_egs[107,2,217]
   + 371067.14 A_egs[107,3,217] + 338801.2 A_egs[108,1,217]
   + 338801.2 A_egs[108,2,217] + 338801.2 A_egs[108,3,217]
   + 317270.34 A_egs[109,1,217] + 317270.34 A_egs[109,2,217]
   + 317270.34 A_egs[109,3,217] + 210890.24 A_egs[110,1,217]
   + 210890.24 A_egs[110,2,217] + 210890.24 A_egs[110,3,217]
   + 252752.4 A_egs[111,1,217] + 252752.4 A_egs[111,2,217]
   + 252752.4 A_egs[111,3,217] + 332885.7 A_egs[112,1,217]
   + 332885.7 A_egs[112,2,217] + 332885.7 A_egs[112,3,217]
   + 380814.52 A_egs[113,1,217] + 380814.52 A_egs[113,2,217]
   + 380814.52 A_egs[113,3,217] + 449694 A_egs[114,1,217]
   + 449694 A_egs[114,2,217] + 449694 A_egs[114,3,217]
   + 169093.2 A_egs[115,1,217] + 169093.2 A_egs[115,2,217]
   + 169093.2 A_egs[115,3,217] + 617110.2 A_egs[116,1,217]
   + 617110.2 A_egs[116,2,217] + 617110.2 A_egs[116,3,217]
   + 546598.8 A_egs[117,1,217] + 546598.8 A_egs[117,2,217]
   + 546598.8 A_egs[117,3,217] + 788319 A_egs[118,1,217]
   + 788319 A_egs[118,2,217] + 788319 A_egs[118,3,217]
   + 990080.2999999999 A_egs[119,1,217]
   + 990080.2999999999 A_egs[119,2,217]
   + 990080.2999999999 A_egs[119,3,217]
   + 1.3150223999999999e+06 A_egs[120,1,217]
   + 1.3150223999999999e+06 A_egs[120,2,217]
   + 1.3150223999999999e+06 A_egs[120,3,217]
   + 1.7113959200000002e+06 A_egs[121,1,217]
   + 1.7113959200000002e+06 A_egs[121,2,217]
   + 1.7113959200000002e+06 A_egs[121,3,217]
   + 568275.2999999999 A_egs[122,1,217]
   + 568275.2999999999 A_egs[122,2,217]
   + 568275.2999999999 A_egs[122,3,217] + 609142.17 A_egs[123,1,217]
   + 609142.17 A_egs[123,2,217] + 609142.17 A_egs[123,3,217]
   + 641495.4 A_egs[124,1,217] + 641495.4 A_egs[124,2,217]
   + 641495.4 A_egs[124,3,217] + 787789.26 A_egs[125,1,217]
   + 787789.26 A_egs[125,2,217] + 787789.26 A_egs[125,3,217]
   - 50 X_gs[1,217] - 100 X_gs[2,217] - 200 X_gs[3,217] <= 0
 Demand_Coverage_Source_119_Commune_32: A_egs[119,1,215] + A_egs[119,1,216]
   + A_egs[119,1,217] + A_egs[119,2,215] + A_egs[119,2,216]
   + A_egs[119,2,217] + A_egs[119,3,215] + A_egs[119,3,216]
   + A_egs[119,3,217] >= 0.0001
 Demand_Coverage_Source_120_Commune_32: A_egs[120,1,215] + A_egs[120,1,216]
   + A_egs[120,1,217] + A_egs[120,2,215] + A_egs[120,2,216]
   + A_egs[120,2,217] + A_egs[120,3,215] + A_egs[120,3,216]
   + A_egs[120,3,217] >= 0.0001
 Demand_Coverage_Source_121_Commune_32: A_egs[121,1,215] + A_egs[121,1,216]
   + A_egs[121,1,217] + A_egs[121,2,215] + A_egs[121,2,216]
   + A_egs[121,2,217] + A_egs[121,3,215] + A_egs[121,3,216]
   + A_egs[121,3,217] >= 0.0001
 Demand_Coverage_Source_122_Commune_32: A_egs[122,1,215] + A_egs[122,1,216]
   + A_egs[122,1,217] + A_egs[122,2,215] + A_egs[122,2,216]
   + A_egs[122,2,217] + A_egs[122,3,215] + A_egs[122,3,216]
   + A_egs[122,3,217] >= 0.0001
 Demand_Coverage_Source_123_Commune_32: A_egs[123,1,215] + A_egs[123,1,216]
   + A_egs[123,1,217] + A_egs[123,2,215] + A_egs[123,2,216]
   + A_egs[123,2,217] + A_egs[123,3,215] + A_egs[123,3,216]
   + A_egs[123,3,217] >= 0.0001
 Demand_Coverage_Source_124_Commune_32: A_egs[124,1,215] + A_egs[124,1,216]
   + A_egs[124,1,217] + A_egs[124,2,215] + A_egs[124,2,216]
   + A_egs[124,2,217] + A_egs[124,3,215] + A_egs[124,3,216]
   + A_egs[124,3,217] >= 0.0001
 Demand_Coverage_Source_125_Commune_32: A_egs[125,1,215] + A_egs[125,1,216]
   + A_egs[125,1,217] + A_egs[125,2,215] + A_egs[125,2,216]
   + A_egs[125,2,217] + A_egs[125,3,215] + A_egs[125,3,216]
   + A_egs[125,3,217] >= 0.0001
 Max_Generators_Type_3_Commune_32: X_gs[3,215] + X_gs[3,216] + X_gs[3,217]
   <= 0
Bounds
 A_egs[119,1,215] free
 A_egs[119,1,216] free
 A_egs[119,1,217] free
 A_egs[119,2,215] free
 A_egs[119,2,216] free
 A_egs[119,2,217] free
 A_egs[119,3,215] free
 A_egs[119,3,216] free
 A_egs[119,3,217] free
 A_egs[120,1,215] free
 A_egs[120,1,216] free
 A_egs[120,1,217] free
 A_egs[120,2,215] free
 A_egs[120,2,216] free
 A_egs[120,2,217] free
 A_egs[120,3,215] free
 A_egs[120,3,216] free
 A_egs[120,3,217] free
 A_egs[121,1,215] free
 A_egs[121,1,216] free
 A_egs[121,1,217] free
 A_egs[121,2,215] free
 A_egs[121,2,216] free
 A_egs[121,2,217] free
 A_egs[121,3,215] free
 A_egs[121,3,216] free
 A_egs[121,3,217] free
 A_egs[122,1,215] free
 A_egs[122,1,216] free
 A_egs[122,1,217] free
 A_egs[122,2,215] free
 A_egs[122,2,216] free
 A_egs[122,2,217] free
 A_egs[122,3,215] free
 A_egs[122,3,216] free
 A_egs[122,3,217] free
 A_egs[123,1,215] free
 A_egs[123,1,216] free
 A_egs[123,1,217] free
 A_egs[123,2,215] free
 A_egs[123,2,216] free
 A_egs[123,2,217] free
 A_egs[123,3,215] free
 A_egs[123,3,216] free
 A_egs[123,3,217] free
 A_egs[124,1,215] free
 A_egs[124,1,216] free
 A_egs[124,1,217] free
 A_egs[124,2,215] free
 A_egs[124,2,216] free
 A_egs[124,2,217] free
 A_egs[124,3,215] free
 A_egs[124,3,216] free
 A_egs[124,3,217] free
 A_egs[125,1,215] free
 A_egs[125,1,216] free
 A_egs[125,1,217] free
 A_egs[125,2,215] free
 A_egs[125,2,216] free
 A_egs[125,2,217] free
 A_egs[125,3,215] free
 A_egs[125,3,216] free
 A_egs[125,3,217] free
Binaries
 X_gs[1,215] X_gs[1,216] X_gs[1,217] X_gs[2,215] X_gs[2,216] X_gs[2,217]
 X_gs[3,215] X_gs[3,216] X_gs[3,217]
End
